COOK = {C1, C2, C3, C4, C5, C6};
DISH = {D1, D2, D3, D4, D5, D6, D7, D8, D9, D10};
no_tasks = 60;
steps = [1..6, 7..12, 13..18, 19..24, 25..30, 31..36, 37..42, 43..48, 49..54, 55..60];
time = array2d(1..60,COOK,[333, 0, 0, 333, 0, 333, 991, 991, 991, 0, 0, 991, 0, 0, 996, 0, 996, 996, 123, 0, 0, 123, 123, 123, 0, 145, 145, 145, 145, 145, 0, 234, 0, 234, 0, 234, 333, 333, 0, 0, 0, 0, 0, 111, 0, 0, 0, 0, 663, 663, 663, 0, 663, 663, 456, 0, 0, 456, 456, 0, 0, 0, 785, 0, 785, 0, 0, 0, 532, 0, 0, 532, 252, 0, 252, 0, 0, 252, 222, 222, 222, 0, 0, 0, 0, 0, 222, 222, 222, 0, 789, 789, 0, 789, 789, 0, 0, 214, 0, 0, 214, 0, 0, 0, 586, 586, 586, 586, 222, 0, 0, 0, 222, 0, 204, 204, 204, 0, 0, 0, 114, 114, 114, 0, 0, 114, 0, 876, 0, 876, 876, 0, 0, 0, 0, 0, 752, 0, 0, 0, 0, 0, 0, 532, 255, 0, 255, 0, 0, 0, 477, 477, 0, 477, 0, 0, 0, 0, 123, 0, 0, 0, 0, 0, 0, 543, 0, 543, 0, 0, 0, 0, 143, 0, 0, 0, 0, 0, 142, 142, 555, 0, 555, 0, 0, 555, 0, 566, 0, 0, 566, 0, 0, 456, 456, 0, 0, 456, 0, 210, 0, 210, 210, 210, 698, 698, 0, 0, 698, 698, 0, 573, 0, 573, 573, 573, 558, 0, 0, 0, 558, 0, 899, 899, 899, 0, 0, 899, 789, 0, 789, 789, 0, 0, 0, 0, 124, 124, 0, 124, 0, 0, 532, 532, 532, 532, 0, 0, 0, 12, 0, 12, 888, 888, 0, 0, 888, 888, 965, 965, 0, 0, 0, 965, 0, 876, 876, 876, 0, 0, 537, 537, 0, 537, 0, 0, 0, 0, 0, 145, 145, 0, 0, 0, 14, 14, 0, 14, 889, 0, 0, 0, 0, 889, 588, 588, 0, 0, 0, 0, 0, 0, 543, 0, 0, 0, 0, 0, 854, 854, 0, 854, 0, 247, 0, 0, 247, 0, 527, 527, 0, 0, 527, 527, 999, 0, 0, 999, 999, 0, 0, 889, 0, 889, 0, 889, 0, 210, 210, 0, 210, 210, 632, 632, 0, 632, 632, 0, 0, 0, 0, 0, 451, 451, 0, 0, 856, 0, 856, 856]);
